StudentsNr = 10;
InstructorsNr = 75;
DaysNr = 2;
SlotsPerDay = 15;
AvailabilitySlotsLenght = 5;
RoomNr = 1;
ProgrammNr = 1;
DegreeNr = 3;
RolesNr = 2;
CoursesNr = 10;
InstructorsProgramm = [{1}, {1}, {1}, {1}, {1}, {1}, {1}, {1}, {1}, {1}, {1}, {1}, {1}, {1}, {1}, {1}, {1}, {1}, {1}, {1}, {1}, {1}, {1}, {1}, {1}, {1}, {1}, {1}, {1}, {1}, {1}, {1}, {1}, {1}, {1}, {1}, {1}, {1}, {1}, {1}, {1}, {1}, {1}, {1}, {1}, {1}, {1}, {1}, {1}, {1}, {1}, {1}, {1}, {1}, {1}, {1}, {1}, {1}, {1}, {1}, {1}, {1}, {1}, {1}, {1}, {1}, {1}, {1}, {1}, {1}, {1}, {1}, {1}, {1}, {1}];
InstructorRolesPerProgramm = [|{1, 4, 5, 6, 8, 9, 16, 19, 27, 29, 30, 31, 32, 33, 34, 36, 37, 40, 48, 49, 50, 51, 56, 57, 58, 60, 61, 64, 66, 69, 72, 75}, {2, 3, 7, 11, 14, 16, 18, 19, 25, 30, 32, 37, 40, 41, 43, 49, 52, 54, 55, 56, 57, 58, 59, 60, 63, 64, 65, 69, 73, 74}|];
InstructorsAvailability = [|1, 1, 1, 1, 1, 1, |1, 1, 1, 1, 1, 1, |0, 1, 0, 1, 1, 1, |0, 0, 1, 1, 1, 1, |1, 0, 1, 1, 1, 1, |1, 1, 1, 0, 1, 0, |1, 1, 1, 1, 1, 1, |1, 1, 1, 1, 1, 0, |0, 1, 0, 0, 0, 1, |1, 0, 1, 1, 0, 0, |0, 1, 1, 1, 1, 1, |0, 1, 1, 1, 1, 0, |1, 1, 1, 1, 1, 1, |1, 1, 1, 1, 1, 1, |1, 1, 1, 1, 0, 0, |1, 1, 0, 1, 1, 1, |1, 1, 1, 1, 1, 1, |0, 0, 1, 1, 1, 1, |0, 0, 0, 1, 1, 1, |1, 1, 1, 1, 1, 1, |1, 1, 1, 1, 1, 1, |0, 1, 1, 1, 1, 1, |0, 0, 1, 1, 1, 1, |1, 1, 1, 1, 1, 1, |0, 0, 0, 1, 1, 1, |1, 1, 1, 1, 1, 1, |1, 1, 0, 1, 1, 1, |0, 1, 1, 1, 1, 1, |0, 1, 1, 1, 1, 1, |0, 1, 1, 1, 1, 1, |1, 1, 1, 0, 0, 1, |0, 0, 1, 1, 0, 1, |1, 0, 0, 1, 1, 1, |1, 1, 1, 1, 1, 1, |1, 1, 0, 1, 1, 0, |0, 0, 0, 0, 0, 0, |1, 1, 1, 1, 1, 1, |1, 1, 0, 0, 1, 1, |1, 1, 1, 1, 1, 0, |1, 1, 1, 1, 1, 1, |1, 1, 1, 1, 1, 0, |1, 1, 1, 1, 1, 0, |0, 1, 0, 1, 1, 1, |1, 1, 1, 1, 1, 1, |1, 1, 1, 1, 1, 1, |1, 1, 1, 1, 1, 1, |0, 1, 1, 0, 1, 1, |0, 1, 1, 1, 1, 1, |1, 1, 1, 1, 1, 0, |0, 1, 1, 1, 1, 0, |0, 1, 1, 1, 1, 1, |0, 0, 0, 0, 0, 1, |0, 1, 1, 1, 1, 1, |0, 1, 1, 1, 1, 1, |1, 1, 1, 1, 1, 1, |1, 1, 1, 1, 1, 1, |0, 0, 1, 1, 1, 1, |0, 1, 1, 1, 1, 1, |0, 1, 1, 1, 1, 0, |0, 1, 1, 0, 1, 1, |0, 1, 1, 1, 1, 1, |1, 1, 1, 1, 1, 1, |0, 1, 1, 1, 1, 1, |1, 1, 1, 1, 1, 1, |0, 1, 1, 1, 1, 1, |0, 1, 1, 1, 1, 1, |1, 1, 1, 1, 1, 1, |0, 0, 0, 1, 1, 1, |1, 1, 1, 1, 1, 1, |1, 1, 1, 1, 1, 1, |1, 1, 1, 1, 1, 1, |1, 1, 1, 1, 1, 0, |1, 1, 1, 1, 1, 1, |1, 1, 1, 1, 1, 1, |0, 0, 1, 0, 1, 1|];
StudentsProgramm = [1, 1, 1, 1, 1, 1, 1, 1, 1, 1];
StudentsDegree = [3, 1, 3, 1, 3, 3, 2, 2, 3, 1];
StudentsSupervisorId = [26, 3, 71, 64, 74, 6, 36, 61, 41, 15];
StudentsCourseIds = [{1}, {}, {8}, {}, {4}, {4}, {1, 2, 3, 4, 5, 6, 7, 8, 9}, {1, 3, 4, 5, 6, 7, 8, 9, 10}, {2}, {}];
StudentsAvailability = [|1, 1, 1, 1, 0, 0, |1, 1, 1, 1, 1, 1, |0, 0, 0, 1, 1, 1, |0, 0, 0, 1, 1, 1, |0, 1, 0, 0, 0, 0, |1, 1, 1, 1, 1, 1, |1, 0, 1, 0, 1, 1, |0, 0, 1, 1, 1, 1, |1, 1, 1, 1, 1, 1, |0, 0, 0, 1, 1, 1|];
TheoryticalMinCard = [1, 0, 0, 0, 0, 0, 0, 0, 0, 1];
CoursesInstructorIds = [{6, 23, 24, 25, 30, 34, 43, 44, 46, 50, 59, 60, 62, 65, 66, 67}, {2, 4, 6, 7, 8, 9, 11, 13, 14, 17, 19, 20, 22, 24, 27, 28, 29, 30, 31, 32, 33, 36, 38, 40, 41, 43, 44, 47, 48, 49, 50, 51, 52, 54, 55, 56, 57, 63, 65, 66, 67, 68, 70, 71, 72, 74}, {2, 5, 6, 7, 8, 13, 14, 17, 18, 19, 21, 22, 26, 28, 30, 33, 34, 35, 36, 37, 39, 40, 41, 43, 44, 45, 47, 49, 53, 54, 57, 58, 59, 61, 62, 63, 64, 66, 68, 73}, {2, 3, 4, 6, 8, 10, 11, 14, 15, 16, 17, 18, 19, 20, 21, 22, 23, 25, 26, 27, 28, 30, 31, 32, 34, 35, 39, 40, 41, 43, 44, 46, 48, 50, 51, 53, 55, 56, 58, 61, 62, 63, 65, 66, 67, 70, 71, 72, 73}, {3, 4, 9, 10, 14, 15, 19, 20, 22, 23, 24, 25, 28, 30, 31, 32, 33, 34, 38, 39, 44, 46, 48, 49, 53, 54, 56, 60, 62, 63, 64, 66, 68, 71, 75}, {3, 4, 6, 10, 11, 12, 13, 14, 15, 16, 18, 23, 24, 25, 26, 29, 33, 34, 35, 38, 40, 42, 44, 45, 47, 48, 50, 51, 53, 54, 55, 56, 58, 59, 60, 61, 66, 67, 69, 70, 72, 73}, {69}, {2, 4, 6, 7, 8, 9, 10, 12, 14, 19, 20, 22, 23, 24, 30, 31, 32, 33, 34, 37, 38, 39, 40, 41, 42, 43, 45, 46, 50, 51, 52, 57, 58, 60, 62, 63, 65, 67, 68, 69, 70, 71, 75}, {2, 3, 5, 6, 8, 9, 12, 17, 19, 22, 28, 29, 38, 39, 40, 42, 43, 45, 46, 47, 50, 53, 56, 58, 59, 60, 62, 67, 70, 75}, {1, 2, 4, 7, 9, 10, 11, 12, 13, 16, 18, 20, 21, 23, 24, 25, 26, 27, 28, 29, 31, 32, 33, 34, 35, 38, 40, 42, 44, 46, 47, 49, 50, 51, 52, 54, 56, 59, 61, 64, 66, 69, 71, 72, 73}];
RolesDemands = [14, 8];
RolesContinuity = [];
ExamLen = [2, 1, 2, 1, 2, 2, 2, 2, 2, 1];
LunchTsMinLen = 1;
LunchStarts = [7..10, 22..24];
SupervisorAvailable = 0;
OptimalLunchLenght = [1, 1];
OptimalStartTs = [2, 0];
OptimalFinishTs = [2, 15];
MinimizeRooms = 500;
RolesSoftContinuity = [|1, 2|3, 0|];
SameDegreeInRoom = 20;
Mergeability = 1;
